%%%mzn-stat: initTime=0.011895392
%%%mzn-stat: objective=275
%%%mzn-stat: nodes=42727
%%%mzn-stat: restarts=2
%%%mzn-stat: peakDepth=401
%%%mzn-stat: solveTime=4.349113083
%%%mzn-stat: variables=1142
%%%mzn-stat: propagators=834
%%%mzn-stat: failures=14999
%%%mzn-stat: propagations=648295
%%%mzn-stat: nogoods=14999
%%%mzn-stat: AverageConflictSize=45.87799186612441
%%%mzn-stat: NumUnitNogoodsLearned=274
%%%mzn-stat: AverageLearnedNogoodLength=57.09480632042136
%%%mzn-stat: AverageBacktrackAmount=0
%%%mzn-stat: AverageLbd=22.792519501300088
%%%mzn-stat-end
maxleg = 275;
succ = array1d(1..50,[5, 30, 24, 36, 44, 8, 17, 33, 42, 39, 22, 10, 25, 1, 3, 37, 2, 20, 49, 14, 23, 12, 32, 21, 31, 28, 16, 45, 34, 47, 11, 13, 40, 4, 19, 43, 7, 15, 46, 48, 35, 6, 26, 27, 9, 18, 41, 38, 50, 29]);
% time elapsed: 5.86 s
----------
==========
% time elapsed: 5.86 s
%%%mzn-stat: initTime=0.011895392
%%%mzn-stat: objective=275
%%%mzn-stat: nodes=42727
%%%mzn-stat: restarts=2
%%%mzn-stat: peakDepth=401
%%%mzn-stat: solveTime=4.349116989
%%%mzn-stat: variables=1142
%%%mzn-stat: propagators=834
%%%mzn-stat: failures=14999
%%%mzn-stat: propagations=648295
%%%mzn-stat: nogoods=14999
%%%mzn-stat: AverageConflictSize=45.87799186612441
%%%mzn-stat: NumUnitNogoodsLearned=274
%%%mzn-stat: AverageLearnedNogoodLength=57.09480632042136
%%%mzn-stat: AverageBacktrackAmount=0
%%%mzn-stat: AverageLbd=22.792519501300088
%%%mzn-stat-end
